50
1 0 12
2 0 14
2 1 19
3 0 14
3 1 19
3 2 16
4 0 4
4 1 12
4 2 14
4 3 5
5 0 6
5 1 1
5 2 13
5 3 16
5 4 1
6 0 8
6 1 17
6 2 5
6 3 4
6 4 8
6 5 10
7 0 20
7 1 9
7 2 1
7 3 18
7 4 2
7 5 20
7 6 10
8 0 5
8 1 15
8 2 8
8 3 10
8 4 15
8 5 1
8 6 4
8 7 13
9 0 15
9 1 12
9 2 10
9 3 16
9 4 18
9 5 15
9 6 10
9 7 13
9 8 4
10 0 19
10 1 8
10 2 12
10 3 19
10 4 7
10 5 10
10 6 18
10 7 5
10 8 19
10 9 20
11 0 10
11 1 1
11 2 17
11 3 15
11 4 11
11 5 14
11 6 20
11 7 11
11 8 19
11 9 19
11 10 12
12 0 16
12 1 10
12 2 12
12 3 11
12 4 5
12 5 16
12 6 7
12 7 16
12 8 18
12 9 6
12 10 3
12 11 14
13 0 1
13 1 6
13 2 18
13 3 16
13 4 2
13 5 15
13 6 11
13 7 15
13 8 10
13 9 13
13 10 2
13 11 14
13 12 9
14 0 8
14 1 15
14 2 11
14 3 8
14 4 7
14 5 3
14 6 3
14 7 12
14 8 16
14 9 17
14 10 7
14 11 20
14 12 19
14 13 17
15 0 10
15 1 5
15 2 18
15 3 20
15 4 16
15 5 5
15 6 6
15 7 18
15 8 16
15 9 17
15 10 13
15 11 1
15 12 17
15 13 14
15 14 17
16 0 15
16 1 10
16 2 1
16 3 4
16 4 20
16 5 12
16 6 16
16 7 16
16 8 16
16 9 16
16 10 6
16 11 4
16 12 14
16 13 19
16 14 19
16 15 11
17 0 17
17 1 17
17 2 12
17 3 12
17 4 13
17 5 14
17 6 20
17 7 2
17 8 5
17 9 10
17 10 1
17 11 14
17 12 17
17 13 18
17 14 15
17 15 13
17 16 19
18 0 15
18 1 8
18 2 11
18 3 4
18 4 16
18 5 6
18 6 5
18 7 12
18 8 1
18 9 17
18 10 14
18 11 8
18 12 7
18 13 17
18 14 9
18 15 9
18 16 5
18 17 16
19 0 1
19 1 16
19 2 20
19 3 13
19 4 1
19 5 18
19 6 3
19 7 7
19 8 12
19 9 8
19 10 17
19 11 9
19 12 2
19 13 12
19 14 20
19 15 6
19 16 19
19 17 1
19 18 11
20 0 15
20 1 15
20 2 12
20 3 6
20 4 13
20 5 6
20 6 17
20 7 13
20 8 19
20 9 5
20 10 3
20 11 15
20 12 9
20 13 20
20 14 12
20 15 18
20 16 4
20 17 4
20 18 14
20 19 14
21 0 17
21 1 4
21 2 7
21 3 14
21 4 20
21 5 11
21 6 13
21 7 6
21 8 7
21 9 18
21 10 6
21 11 13
21 12 11
21 13 3
21 14 1
21 15 5
21 16 6
21 17 6
21 18 13
21 19 9
21 20 17
22 0 17
22 1 19
22 2 13
22 3 3
22 4 11
22 5 10
22 6 9
22 7 18
22 8 3
22 9 1
22 10 1
22 11 14
22 12 17
22 13 10
22 14 15
22 15 19
22 16 10
22 17 17
22 18 10
22 19 18
22 20 13
22 21 10
23 0 9
23 1 7
23 2 4
23 3 5
23 4 9
23 5 13
23 6 14
23 7 18
23 8 10
23 9 11
23 10 15
23 11 2
23 12 17
23 13 18
23 14 13
23 15 8
23 16 5
23 17 5
23 18 19
23 19 16
23 20 10
23 21 7
23 22 15
24 0 11
24 1 1
24 2 1
24 3 10
24 4 15
24 5 17
24 6 16
24 7 11
24 8 1
24 9 8
24 10 1
24 11 3
24 12 10
24 13 8
24 14 13
24 15 13
24 16 7
24 17 20
24 18 2
24 19 9
24 20 4
24 21 2
24 22 8
24 23 9
25 0 7
25 1 12
25 2 1
25 3 4
25 4 10
25 5 6
25 6 5
25 7 12
25 8 7
25 9 13
25 10 6
25 11 5
25 12 11
25 13 2
25 14 9
25 15 3
25 16 18
25 17 11
25 18 14
25 19 2
25 20 1
25 21 5
25 22 4
25 23 16
25 24 20
26 0 19
26 1 16
26 2 20
26 3 18
26 4 15
26 5 16
26 6 16
26 7 10
26 8 19
26 9 20
26 10 11
26 11 16
26 12 16
26 13 14
26 14 14
26 15 8
26 16 6
26 17 12
26 18 2
26 19 2
26 20 6
26 21 15
26 22 1
26 23 11
26 24 13
26 25 6
27 0 8
27 1 18
27 2 2
27 3 2
27 4 15
27 5 4
27 6 10
27 7 16
27 8 5
27 9 16
27 10 14
27 11 12
27 12 9
27 13 1
27 14 7
27 15 20
27 16 4
27 17 15
27 18 2
27 19 20
27 20 9
27 21 2
27 22 13
27 23 20
27 24 11
27 25 12
27 26 17
28 0 16
28 1 18
28 2 3
28 3 19
28 4 18
28 5 3
28 6 16
28 7 6
28 8 19
28 9 9
28 10 10
28 11 12
28 12 6
28 13 6
28 14 11
28 15 5
28 16 13
28 17 13
28 18 1
28 19 18
28 20 13
28 21 3
28 22 11
28 23 6
28 24 1
28 25 19
28 26 9
28 27 13
29 0 6
29 1 10
29 2 16
29 3 1
29 4 1
29 5 4
29 6 20
29 7 4
29 8 7
29 9 7
29 10 2
29 11 1
29 12 1
29 13 11
29 14 12
29 15 3
29 16 6
29 17 20
29 18 13
29 19 3
29 20 18
29 21 13
29 22 11
29 23 1
29 24 9
29 25 13
29 26 10
29 27 19
29 28 10
30 0 1
30 1 19
30 2 20
30 3 1
30 4 15
30 5 14
30 6 11
30 7 1
30 8 7
30 9 19
30 10 8
30 11 4
30 12 12
30 13 14
30 14 12
30 15 7
30 16 17
30 17 3
30 18 11
30 19 10
30 20 4
30 21 7
30 22 5
30 23 8
30 24 14
30 25 4
30 26 2
30 27 13
30 28 13
30 29 15
31 0 9
31 1 12
31 2 3
31 3 13
31 4 12
31 5 13
31 6 6
31 7 10
31 8 15
31 9 6
31 10 4
31 11 17
31 12 20
31 13 15
31 14 8
31 15 20
31 16 18
31 17 7
31 18 16
31 19 15
31 20 20
31 21 4
31 22 5
31 23 10
31 24 15
31 25 4
31 26 17
31 27 7
31 28 11
31 29 20
31 30 5
32 0 11
32 1 10
32 2 20
32 3 5
32 4 20
32 5 19
32 6 18
32 7 20
32 8 9
32 9 3
32 10 9
32 11 12
32 12 14
32 13 8
32 14 15
32 15 9
32 16 11
32 17 16
32 18 17
32 19 14
32 20 16
32 21 2
32 22 7
32 23 9
32 24 12
32 25 16
32 26 8
32 27 4
32 28 19
32 29 10
32 30 16
32 31 20
33 0 16
33 1 11
33 2 16
33 3 12
33 4 13
33 5 9
33 6 3
33 7 12
33 8 19
33 9 13
33 10 17
33 11 10
33 12 11
33 13 6
33 14 12
33 15 4
33 16 7
33 17 9
33 18 3
33 19 7
33 20 11
33 21 20
33 22 5
33 23 6
33 24 10
33 25 13
33 26 13
33 27 7
33 28 7
33 29 3
33 30 16
33 31 5
33 32 1
34 0 18
34 1 6
34 2 2
34 3 9
34 4 19
34 5 5
34 6 11
34 7 5
34 8 5
34 9 13
34 10 13
34 11 6
34 12 3
34 13 19
34 14 3
34 15 9
34 16 19
34 17 14
34 18 3
34 19 16
34 20 20
34 21 12
34 22 2
34 23 12
34 24 4
34 25 11
34 26 15
34 27 5
34 28 2
34 29 3
34 30 16
34 31 13
34 32 12
34 33 2
35 0 9
35 1 8
35 2 1
35 3 5
35 4 2
35 5 8
35 6 4
35 7 14
35 8 17
35 9 15
35 10 11
35 11 14
35 12 8
35 13 19
35 14 9
35 15 2
35 16 18
35 17 17
35 18 18
35 19 7
35 20 4
35 21 10
35 22 8
35 23 5
35 24 2
35 25 13
35 26 14
35 27 2
35 28 3
35 29 5
35 30 8
35 31 16
35 32 17
35 33 9
35 34 11
36 0 9
36 1 15
36 2 5
36 3 11
36 4 7
36 5 7
36 6 8
36 7 13
36 8 1
36 9 19
36 10 20
36 11 15
36 12 1
36 13 16
36 14 10
36 15 7
36 16 12
36 17 9
36 18 19
36 19 15
36 20 6
36 21 17
36 22 17
36 23 14
36 24 2
36 25 16
36 26 2
36 27 9
36 28 3
36 29 6
36 30 11
36 31 17
36 32 5
36 33 17
36 34 7
36 35 9
37 0 12
37 1 8
37 2 7
37 3 10
37 4 4
37 5 20
37 6 11
37 7 14
37 8 2
37 9 4
37 10 20
37 11 7
37 12 12
37 13 13
37 14 17
37 15 10
37 16 18
37 17 11
37 18 1
37 19 8
37 20 14
37 21 17
37 22 13
37 23 12
37 24 13
37 25 19
37 26 6
37 27 6
37 28 3
37 29 16
37 30 13
37 31 12
37 32 14
37 33 7
37 34 5
37 35 10
37 36 9
38 0 11
38 1 6
38 2 9
38 3 16
38 4 14
38 5 16
38 6 11
38 7 9
38 8 20
38 9 2
38 10 3
38 11 10
38 12 3
38 13 10
38 14 5
38 15 7
38 16 7
38 17 13
38 18 15
38 19 13
38 20 12
38 21 4
38 22 17
38 23 9
38 24 11
38 25 13
38 26 15
38 27 4
38 28 10
38 29 5
38 30 19
38 31 19
38 32 17
38 33 15
38 34 1
38 35 8
38 36 16
38 37 8
39 0 16
39 1 6
39 2 7
39 3 10
39 4 17
39 5 15
39 6 13
39 7 9
39 8 1
39 9 8
39 10 14
39 11 20
39 12 8
39 13 8
39 14 1
39 15 4
39 16 20
39 17 8
39 18 20
39 19 4
39 20 18
39 21 18
39 22 2
39 23 16
39 24 3
39 25 13
39 26 10
39 27 19
39 28 15
39 29 17
39 30 5
39 31 12
39 32 7
39 33 18
39 34 12
39 35 14
39 36 20
39 37 10
39 38 7
40 0 16
40 1 12
40 2 18
40 3 19
40 4 10
40 5 18
40 6 10
40 7 10
40 8 19
40 9 14
40 10 19
40 11 7
40 12 9
40 13 18
40 14 14
40 15 19
40 16 12
40 17 1
40 18 5
40 19 3
40 20 6
40 21 8
40 22 13
40 23 6
40 24 20
40 25 11
40 26 18
40 27 9
40 28 1
40 29 4
40 30 14
40 31 2
40 32 6
40 33 17
40 34 13
40 35 8
40 36 2
40 37 20
40 38 7
40 39 20
41 0 9
41 1 8
41 2 15
41 3 12
41 4 14
41 5 15
41 6 10
41 7 17
41 8 11
41 9 13
41 10 1
41 11 16
41 12 17
41 13 18
41 14 18
41 15 7
41 16 5
41 17 18
41 18 7
41 19 7
41 20 10
41 21 4
41 22 4
41 23 2
41 24 5
41 25 11
41 26 20
41 27 16
41 28 10
41 29 2
41 30 12
41 31 16
41 32 20
41 33 12
41 34 19
41 35 17
41 36 6
41 37 2
41 38 3
41 39 16
41 40 12
42 0 4
42 1 20
42 2 4
42 3 15
42 4 13
42 5 19
42 6 4
42 7 13
42 8 15
42 9 20
42 10 2
42 11 12
42 12 18
42 13 15
42 14 20
42 15 9
42 16 9
42 17 15
42 18 19
42 19 4
42 20 16
42 21 8
42 22 16
42 23 5
42 24 8
42 25 4
42 26 18
42 27 14
42 28 10
42 29 5
42 30 13
42 31 14
42 32 17
42 33 6
42 34 3
42 35 10
42 36 16
42 37 10
42 38 9
42 39 6
42 40 13
42 41 17
43 0 9
43 1 6
43 2 18
43 3 18
43 4 7
43 5 4
43 6 17
43 7 5
43 8 20
43 9 6
43 10 5
43 11 2
43 12 19
43 13 20
43 14 10
43 15 10
43 16 6
43 17 2
43 18 19
43 19 5
43 20 7
43 21 14
43 22 19
43 23 13
43 24 5
43 25 13
43 26 15
43 27 11
43 28 19
43 29 18
43 30 10
43 31 8
43 32 2
43 33 18
43 34 18
43 35 17
43 36 2
43 37 2
43 38 20
43 39 18
43 40 17
43 41 11
43 42 12
44 0 2
44 1 13
44 2 20
44 3 20
44 4 2
44 5 3
44 6 12
44 7 6
44 8 3
44 9 9
44 10 3
44 11 7
44 12 19
44 13 18
44 14 16
44 15 14
44 16 3
44 17 5
44 18 13
44 19 7
44 20 5
44 21 10
44 22 19
44 23 3
44 24 9
44 25 18
44 26 20
44 27 8
44 28 11
44 29 13
44 30 2
44 31 4
44 32 2
44 33 3
44 34 2
44 35 14
44 36 10
44 37 5
44 38 19
44 39 11
44 40 10
44 41 7
44 42 8
44 43 1
45 0 4
45 1 19
45 2 10
45 3 15
45 4 7
45 5 18
45 6 3
45 7 12
45 8 3
45 9 20
45 10 3
45 11 17
45 12 20
45 13 13
45 14 18
45 15 4
45 16 20
45 17 19
45 18 13
45 19 8
45 20 11
45 21 20
45 22 19
45 23 7
45 24 5
45 25 13
45 26 12
45 27 6
45 28 8
45 29 19
45 30 7
45 31 8
45 32 12
45 33 19
45 34 2
45 35 11
45 36 2
45 37 20
45 38 7
45 39 6
45 40 18
45 41 8
45 42 8
45 43 9
45 44 4
46 0 15
46 1 16
46 2 17
46 3 2
46 4 11
46 5 1
46 6 10
46 7 18
46 8 6
46 9 1
46 10 6
46 11 18
46 12 18
46 13 9
46 14 5
46 15 3
46 16 16
46 17 8
46 18 12
46 19 5
46 20 17
46 21 16
46 22 13
46 23 7
46 24 9
46 25 9
46 26 15
46 27 6
46 28 3
46 29 7
46 30 2
46 31 2
46 32 12
46 33 15
46 34 3
46 35 14
46 36 8
46 37 7
46 38 10
46 39 9
46 40 8
46 41 10
46 42 13
46 43 18
46 44 14
46 45 16
47 0 9
47 1 10
47 2 14
47 3 9
47 4 1
47 5 1
47 6 19
47 7 6
47 8 15
47 9 11
47 10 9
47 11 16
47 12 18
47 13 20
47 14 3
47 15 15
47 16 5
47 17 18
47 18 18
47 19 14
47 20 19
47 21 8
47 22 10
47 23 16
47 24 9
47 25 20
47 26 19
47 27 1
47 28 18
47 29 10
47 30 20
47 31 7
47 32 18
47 33 4
47 34 20
47 35 11
47 36 16
47 37 17
47 38 15
47 39 19
47 40 9
47 41 1
47 42 17
47 43 15
47 44 12
47 45 6
47 46 13
48 0 19
48 1 13
48 2 2
48 3 6
48 4 4
48 5 7
48 6 11
48 7 17
48 8 11
48 9 12
48 10 3
48 11 13
48 12 20
48 13 4
48 14 14
48 15 12
48 16 1
48 17 15
48 18 3
48 19 1
48 20 4
48 21 19
48 22 20
48 23 1
48 24 12
48 25 6
48 26 10
48 27 13
48 28 13
48 29 1
48 30 6
48 31 1
48 32 2
48 33 5
48 34 19
48 35 9
48 36 12
48 37 7
48 38 4
48 39 3
48 40 15
48 41 3
48 42 17
48 43 7
48 44 18
48 45 16
48 46 1
48 47 12
49 0 18
49 1 17
49 2 6
49 3 12
49 4 17
49 5 2
49 6 12
49 7 11
49 8 8
49 9 7
49 10 6
49 11 6
49 12 14
49 13 9
49 14 12
49 15 5
49 16 18
49 17 3
49 18 18
49 19 16
49 20 18
49 21 19
49 22 18
49 23 4
49 24 7
49 25 10
49 26 12
49 27 15
49 28 16
49 29 8
49 30 14
49 31 13
49 32 2
49 33 1
49 34 7
49 35 4
49 36 1
49 37 12
49 38 5
49 39 3
49 40 16
49 41 12
49 42 18
49 43 4
49 44 17
49 45 19
49 46 6
49 47 16
49 48 13
